NAME : M-n151-k12.1015.tour
COMMENT : Cost = 0_1015
COMMENT : Found by LKH [Keld Helsgaun] Wed Sep 13 12:54:00 2017
TYPE : TOUR
DIMENSION : 162
TOUR_SECTION
1
53
107
49
83
9
46
126
84
61
119
90
157
138
3
116
146
42
23
134
24
57
76
75
73
74
22
41
155
133
2
123
52
104
10
121
82
34
103
51
112
156
29
77
117
78
4
122
30
25
135
81
151
69
13
158
80
130
79
35
136
36
137
66
72
67
129
21
31
71
102
70
152
19
115
47
125
48
37
144
50
65
12
108
20
124
8
147
154
14
88
43
143
15
120
45
142
17
62
105
97
7
160
59
145
58
16
44
39
141
87
114
18
85
6
148
159
89
149
63
127
64
91
33
132
109
11
32
128
28
162
118
98
93
38
99
101
92
86
94
100
60
96
95
153
27
150
111
5
140
40
68
26
56
131
55
110
139
161
54
106
113
-1
EOF
